22 119 11 104 192 176 195 163 68 194 31 38 9 2 115 105 71 39 141 64 175 172 81 155 96 169 72 125 60 92 123 177 36 25 94 100 75 160 186 122 140 106 132 52 12 118 166 67 147 3 56 65 148 187 156 87 126 180 0 37 136 153 114 17 151 158 139 190 79 15 35 26 16 135 57 78 23 99 117 162 150 59 113 34 43 191 20 47 98 95 108 73 93 10 102 127 8 61 138 28 51 70 173 196 74 179 121 91 83 40 165 157 152 88 159 50 4 82 19 46 188 164 129 171 107 137 189 80 109 6 198 110 66 48 14 76 154 144 32 89 161 33 183 124 55 54 116 42 27 131 49 182 29 149 146 120 145 45 24 130 112 1 58 90 133 134 143 168 103 181 193 7 62 111 30 41 85 13 174 21 128 178 199 170 5 63 44 86 18 101 197 97 184 185 167 69 84 142 53 77